Route #1: 1 16 35 27 40 51 34 44 52 11 1 
Route #2: 1 1 28 17 50 43 42 33 9 39 1 
Route #3: 1 60 31 13 12 22 4 55 1 
Route #4: 1 48 47 21 36 6 53 2 10 1 
Route #5: 1 58 25 59 46 8 20 29 1 
Route #6: 1 56 41 54 45 30 49 1 
Route #7: 1 57 14 7 19 24 1 
Route #8: 1 18 5 37 3 15 23 1 
Route #9: 1 26 32 1 
Route #10: 1 38 1 

Cost 1928.8
Time 0.5304


 * Another infos *

 Iterations: 61 Time: 0.5304 sec - 0.0088 min - 0.0001 horas
0.0000 h 0.0088 min
Problem dimension: 61
